GLPSOL: GLPK LP/MIP Solver, v4.53
Parameter(s) specified in the command line:
 -o solution_printable.txt --log terminal.log --max --lp CPLEX.LP
Reading problem data from 'CPLEX.LP'...
12 rows, 35 columns, 70 non-zeros
56 lines were read
GLPK Simplex Optimizer, v4.53
12 rows, 35 columns, 70 non-zeros
Preprocessing...
12 rows, 35 columns, 70 non-zeros
Scaling...
 A: min|aij| = 1.000e+000  max|aij| = 1.000e+000  ratio = 1.000e+000
Problem data seem to be well scaled
Constructing initial basis...
Size of triangular part is 12
*     0: obj =  0.000000000e+000  infeas = 0.000e+000 (0)
*    12: obj =  4.607466780e+006  infeas = 0.000e+000 (0)
OPTIMAL LP SOLUTION FOUND
Time used:   0.0 secs
Memory used: 0.1 Mb (56644 bytes)
Writing basic solution to `solution_printable.txt'...
